8749
20, 50, 23, 31, 18, 17, 3, 41, 9, 10, 8, 19, 45, 32, 49, 1, 22, 21, 42, 2, 7, 30, 29, 16, 46, 24, 48, 6, 4, 25, 11, 52, 13, 14, 26, 47, 27, 28, 12, 51, 33, 43, 15, 5, 38, 37, 40, 39, 36, 35, 34, 44
